\ This file has been generated by DOcplex
\ ENCODING=ISO-8859-1
\Problem name: Orandom11042_6.lp

Minimize
 obj: - 32.000008938241 x0 - 16.000004469120 x1 - 8.000002234560 x2
      - 20.000008938241 x3 - 10.000004469120 x4 - 5.000002234560 x5 + [
      16.000005107566 x0^2 + 16.000005107566 x0*x1 + 8.000002553783 x0*x2
      + 32.000010215132 x0*x3 + 16.000005107566 x0*x4 + 8.000002553783 x0*x5
      + 4.000001276892 x1^2 + 4.000001276892 x1*x2 + 16.000005107566 x1*x3
      + 8.000002553783 x1*x4 + 4.000001276892 x1*x5 + 1.000000319223 x2^2
      + 8.000002553783 x2*x3 + 4.000001276892 x2*x4 + 2.000000638446 x2*x5
      + 112.000005107566 x3^2 + 112.000005107566 x3*x4 + 56.000002553783 x3*x5
      + 28.000001276892 x4^2 + 28.000001276892 x4*x5 + 7.000000319223 x5^2 ]/2 +
      24.500007820960
Subject To

Bounds
 0 <= x0 <= 1
 0 <= x1 <= 1
 0 <= x2 <= 1
 0 <= x3 <= 1
 0 <= x4 <= 1
 0 <= x5 <= 1

Binaries
 x0 x1 x2 x3 x4 x5
End
